unknown
(model
; cardinality of BoundSet is 4
(declare-sort BoundSet 0)
; rep: @uc_BoundSet_0
; rep: @uc_BoundSet_1
; rep: @uc_BoundSet_2
; rep: @uc_BoundSet_3
; cardinality of UnboundSet is 1
(declare-sort UnboundSet 0)
(declare-fun groundTerm_5 () UnboundSet)
(define-fun TendingTo ((BOUND_VARIABLE_408 BoundSet) (BOUND_VARIABLE_409 BoundSet)) Bool true)
(define-fun Includes ((BOUND_VARIABLE_408 BoundSet) (BOUND_VARIABLE_409 BoundSet)) Bool true)
(define-fun TakingCare ((BOUND_VARIABLE_408 BoundSet) (BOUND_VARIABLE_409 BoundSet)) Bool false)
)
sat
(model
; cardinality of BoundSet is 1
(declare-sort BoundSet 0)
; rep: @uc_BoundSet_0
; cardinality of UnboundSet is 1
(declare-sort UnboundSet 0)
(declare-fun groundTerm_7 () UnboundSet)
(define-fun TendingTo ((BOUND_VARIABLE_447 BoundSet) (BOUND_VARIABLE_448 BoundSet)) Bool true)
(define-fun Includes ((BOUND_VARIABLE_447 BoundSet) (BOUND_VARIABLE_448 BoundSet)) Bool true)
(define-fun TakingCare ((BOUND_VARIABLE_447 BoundSet) (BOUND_VARIABLE_448 BoundSet)) Bool false)
)
